results_rootrelaxation/bin012_080_012.srr.sol
solution status: optimal solution found
objective value:                                   16
_var718_                            0.333333333333334 	(obj:2)
_var723_                            0.666666666666667 	(obj:1)
_var727_                            0.999999999999999 	(obj:0)
_var732_                            0.333333333333333 	(obj:1)
_var761_                            0.999999999999999 	(obj:1)
_var764_                            0.333333333333332 	(obj:2)
_var774_                            0.333333333333335 	(obj:0)
_var777_                            0.333333333333333 	(obj:1)
_var789_                            0.333333333333332 	(obj:1)
_var795_                            0.333333333333333 	(obj:2)
_var824_                            0.666666666666668 	(obj:2)
_var845_                            0.333333333333333 	(obj:3)
_var853_                            0.333333333333332 	(obj:1)
_var869_                            0.666666666666666 	(obj:1)
_var872_                            0.333333333333332 	(obj:1)
_var874_                            0.333333333333332 	(obj:1)
_var875_                            0.333333333333334 	(obj:2)
_var886_                            0.333333333333331 	(obj:2)
_var888_                            0.333333333333333 	(obj:2)
_var895_                            0.333333333333333 	(obj:3)
_var905_                            0.333333333333334 	(obj:3)
_var909_                            0.333333333333333 	(obj:2)
_var910_                            0.333333333333332 	(obj:3)
_var917_                            0.333333333333332 	(obj:2)
_var923_                            0.333333333333332 	(obj:1)
_var926_                            0.333333333333331 	(obj:2)
