results_rootrelaxation/bin012_080_012.srr.log
SCIP version 8.0.3.5 [precision: 8 byte] [memory: block] [mode: optimized] [LP solver: Soplex 6.0.1.3] [GitHash: 438792519e]
Copyright (c) 2002-2023 Zuse Institute Berlin (ZIB)

External libraries: 
  Readline 8.1         GNU library for command line editing (gnu.org/s/readline)
  Soplex 6.0.1.3       Linear Programming Solver developed at Zuse Institute Berlin (soplex.zib.de) [GitHash: 713be0fe]
  CppAD 20180000.0     Algorithmic Differentiation of C++ algorithms developed by B. Bell (github.com/coin-or/CppAD)
  ZLIB 1.2.11          General purpose compression library by J. Gailly and M. Adler (zlib.net)
  bliss 0.77           Computing Graph Automorphism Groups by T. Junttila and P. Kaski (www.tcs.hut.fi/Software/bliss/)

user parameter file <scip.set> not found - using default parameters

srr/relaxation = TRUE

read problem <instances/bin012_080_012.srr>
============

Original problem: 
original problem has 0 variables (0 bin, 0 int, 0 impl, 0 cont) and 77 constraints

presolving:
presolving (1 rounds: 1 fast, 1 medium, 1 exhaustive):
 0 deleted vars, 0 deleted constraints, 0 added constraints, 0 tightened bounds, 0 added holes, 0 changed sides, 0 changed coefficients
 0 implications, 0 cliques
presolved problem has 0 variables (0 bin, 0 int, 0 impl, 0 cont) and 77 constraints
     77 constraints of type <linear>
Presolving Time: 0.00

 time | node  | left  |LP iter|LP it/n|mem/heur|mdpt |vars |cons |rows |cuts |sepa|confs|strbr|  dualbound   | primalbound  |  gap   | compl. 
  0.0s|     1 |     0 |     1 |     - |   710k |   0 |   1 |  77 |  77 |   0 |  0 |   0 |   0 |      --      |      --      |    Inf | unknown
r 0.0s|     1 |     0 |   856 |     - |simplero|   0 | 676 |  77 |  77 |   0 |  0 |   0 |   0 |      --      | 3.629423e+01 |    Inf | unknown
r 0.1s|     1 |     0 |   877 |     - |simplero|   0 | 687 |  77 |  77 |   0 |  0 |   0 |   0 |      --      | 3.461519e+01 |    Inf | unknown
r 0.1s|     1 |     0 |   914 |     - |simplero|   0 | 698 |  77 |  77 |   0 |  0 |   0 |   0 |      --      | 3.358353e+01 |    Inf | unknown
r 0.1s|     1 |     0 |   972 |     - |simplero|   0 | 709 |  77 |  77 |   0 |  0 |   0 |   0 |      --      | 3.118084e+01 |    Inf | unknown
r 0.1s|     1 |     0 |  1012 |     - |simplero|   0 | 720 |  77 |  77 |   0 |  0 |   0 |   0 |      --      | 2.860574e+01 |    Inf | unknown
r 0.1s|     1 |     0 |  1071 |     - |simplero|   0 | 731 |  77 |  77 |   0 |  0 |   0 |   0 |      --      | 2.674121e+01 |    Inf | unknown
r 0.1s|     1 |     0 |  1139 |     - |simplero|   0 | 742 |  77 |  77 |   0 |  0 |   0 |   0 |      --      | 2.522930e+01 |    Inf | unknown
r 0.1s|     1 |     0 |  1203 |     - |simplero|   0 | 753 |  77 |  77 |   0 |  0 |   0 |   0 |      --      | 2.334083e+01 |    Inf | unknown
r 0.1s|     1 |     0 |  1251 |     - |simplero|   0 | 764 |  77 |  77 |   0 |  0 |   0 |   0 |      --      | 2.211503e+01 |    Inf | unknown
r 0.1s|     1 |     0 |  1268 |     - |simplero|   0 | 764 |  77 |  77 |   0 |  0 |   0 |   0 |      --      | 2.189999e+01 |    Inf | unknown
r 0.1s|     1 |     0 |  1275 |     - |simplero|   0 | 764 |  77 |  77 |   0 |  0 |   0 |   0 |      --      | 2.185014e+01 |    Inf | unknown
r 0.1s|     1 |     0 |  1277 |     - |simplero|   0 | 764 |  77 |  77 |   0 |  0 |   0 |   0 |      --      | 2.184503e+01 |    Inf | unknown
r 0.1s|     1 |     0 |  1327 |     - |simplero|   0 | 775 |  77 |  77 |   0 |  0 |   0 |   0 |      --      | 2.109368e+01 |    Inf | unknown
r 0.1s|     1 |     0 |  1338 |     - |simplero|   0 | 775 |  77 |  77 |   0 |  0 |   0 |   0 |      --      | 2.107955e+01 |    Inf | unknown
 time | node  | left  |LP iter|LP it/n|mem/heur|mdpt |vars |cons |rows |cuts |sepa|confs|strbr|  dualbound   | primalbound  |  gap   | compl. 
r 0.1s|     1 |     0 |  1374 |     - |simplero|   0 | 786 |  77 |  77 |   0 |  0 |   0 |   0 |      --      | 2.008325e+01 |    Inf | unknown
r 0.1s|     1 |     0 |  1399 |     - |simplero|   0 | 786 |  77 |  77 |   0 |  0 |   0 |   0 |      --      | 1.984102e+01 |    Inf | unknown
r 0.1s|     1 |     0 |  1404 |     - |simplero|   0 | 786 |  77 |  77 |   0 |  0 |   0 |   0 |      --      | 1.983514e+01 |    Inf | unknown
r 0.1s|     1 |     0 |  1452 |     - |simplero|   0 | 797 |  77 |  77 |   0 |  0 |   0 |   0 |      --      | 1.885989e+01 |    Inf | unknown
r 0.1s|     1 |     0 |  1475 |     - |simplero|   0 | 797 |  77 |  77 |   0 |  0 |   0 |   0 |      --      | 1.862071e+01 |    Inf | unknown
r 0.1s|     1 |     0 |  1476 |     - |simplero|   0 | 797 |  77 |  77 |   0 |  0 |   0 |   0 |      --      | 1.861647e+01 |    Inf | unknown
r 0.1s|     1 |     0 |  1502 |     - |simplero|   0 | 808 |  77 |  77 |   0 |  0 |   0 |   0 |      --      | 1.834139e+01 |    Inf | unknown
r 0.1s|     1 |     0 |  1519 |     - |simplero|   0 | 808 |  77 |  77 |   0 |  0 |   0 |   0 |      --      | 1.822565e+01 |    Inf | unknown
r 0.1s|     1 |     0 |  1525 |     - |simplero|   0 | 808 |  77 |  77 |   0 |  0 |   0 |   0 |      --      | 1.822106e+01 |    Inf | unknown
r 0.1s|     1 |     0 |  1528 |     - |simplero|   0 | 808 |  77 |  77 |   0 |  0 |   0 |   0 |      --      | 1.821864e+01 |    Inf | unknown
r 0.1s|     1 |     0 |  1548 |     - |simplero|   0 | 819 |  77 |  77 |   0 |  0 |   0 |   0 |      --      | 1.789215e+01 |    Inf | unknown
r 0.1s|     1 |     0 |  1552 |     - |simplero|   0 | 819 |  77 |  77 |   0 |  0 |   0 |   0 |      --      | 1.788383e+01 |    Inf | unknown
r 0.1s|     1 |     0 |  1573 |     - |simplero|   0 | 830 |  77 |  77 |   0 |  0 |   0 |   0 |      --      | 1.760145e+01 |    Inf | unknown
r 0.1s|     1 |     0 |  1582 |     - |simplero|   0 | 830 |  77 |  77 |   0 |  0 |   0 |   0 |      --      | 1.755489e+01 |    Inf | unknown
r 0.1s|     1 |     0 |  1587 |     - |simplero|   0 | 830 |  77 |  77 |   0 |  0 |   0 |   0 |      --      | 1.754178e+01 |    Inf | unknown
 time | node  | left  |LP iter|LP it/n|mem/heur|mdpt |vars |cons |rows |cuts |sepa|confs|strbr|  dualbound   | primalbound  |  gap   | compl. 
r 0.1s|     1 |     0 |  1619 |     - |simplero|   0 | 841 |  77 |  77 |   0 |  0 |   0 |   0 |      --      | 1.736368e+01 |    Inf | unknown
r 0.1s|     1 |     0 |  1623 |     - |simplero|   0 | 841 |  77 |  77 |   0 |  0 |   0 |   0 |      --      | 1.735943e+01 |    Inf | unknown
r 0.1s|     1 |     0 |  1660 |     - |simplero|   0 | 852 |  77 |  77 |   0 |  0 |   0 |   0 |      --      | 1.710059e+01 |    Inf | unknown
  0.1s|     1 |     0 |  1667 |     - |  4201k |   0 | 852 |  77 |  77 |   0 |  0 |   0 |   0 |      --      | 1.710059e+01 |    Inf | unknown
r 0.1s|     1 |     0 |  1667 |     - |simplero|   0 | 852 |  77 |  77 |   0 |  0 |   0 |   0 |      --      | 1.709929e+01 |    Inf | unknown
r 0.1s|     1 |     0 |  1687 |     - |simplero|   0 | 863 |  77 |  77 |   0 |  0 |   0 |   0 |      --      | 1.690005e+01 |    Inf | unknown
r 0.1s|     1 |     0 |  1691 |     - |simplero|   0 | 863 |  77 |  77 |   0 |  0 |   0 |   0 |      --      | 1.689650e+01 |    Inf | unknown
r 0.1s|     1 |     0 |  1697 |     - |simplero|   0 | 863 |  77 |  77 |   0 |  0 |   0 |   0 |      --      | 1.689390e+01 |    Inf | unknown
r 0.1s|     1 |     0 |  1721 |     - |simplero|   0 | 873 |  77 |  77 |   0 |  0 |   0 |   0 |      --      | 1.656361e+01 |    Inf | unknown
r 0.1s|     1 |     0 |  1735 |     - |simplero|   0 | 873 |  77 |  77 |   0 |  0 |   0 |   0 |      --      | 1.652868e+01 |    Inf | unknown
r 0.1s|     1 |     0 |  1763 |     - |simplero|   0 | 882 |  77 |  77 |   0 |  0 |   0 |   0 |      --      | 1.639481e+01 |    Inf | unknown
r 0.1s|     1 |     0 |  1775 |     - |simplero|   0 | 882 |  77 |  77 |   0 |  0 |   0 |   0 |      --      | 1.639082e+01 |    Inf | unknown
r 0.1s|     1 |     0 |  1795 |     - |simplero|   0 | 892 |  77 |  77 |   0 |  0 |   0 |   0 |      --      | 1.630233e+01 |    Inf | unknown
r 0.1s|     1 |     0 |  1798 |     - |simplero|   0 | 892 |  77 |  77 |   0 |  0 |   0 |   0 |      --      | 1.630025e+01 |    Inf | unknown
r 0.1s|     1 |     0 |  1826 |     - |simplero|   0 | 901 |  77 |  77 |   0 |  0 |   0 |   0 |      --      | 1.615335e+01 |    Inf | unknown
 time | node  | left  |LP iter|LP it/n|mem/heur|mdpt |vars |cons |rows |cuts |sepa|confs|strbr|  dualbound   | primalbound  |  gap   | compl. 
r 0.1s|     1 |     0 |  1845 |     - |simplero|   0 | 910 |  77 |  77 |   0 |  0 |   0 |   0 |      --      | 1.610526e+01 |    Inf | unknown
r 0.1s|     1 |     0 |  1859 |     - |simplero|   0 | 910 |  77 |  77 |   0 |  0 |   0 |   0 |      --      | 1.608000e+01 |    Inf | unknown
r 0.1s|     1 |     0 |  1872 |     - |simplero|   0 | 917 |  77 |  77 |   0 |  0 |   0 |   0 |      --      | 1.606349e+01 |    Inf | unknown
r 0.1s|     1 |     0 |  1876 |     - |simplero|   0 | 917 |  77 |  77 |   0 |  0 |   0 |   0 |      --      | 1.606250e+01 |    Inf | unknown
r 0.1s|     1 |     0 |  1894 |     - |simplero|   0 | 922 |  77 |  77 |   0 |  0 |   0 |   0 |      --      | 1.603614e+01 |    Inf | unknown
r 0.1s|     1 |     0 |  1895 |     - |simplero|   0 | 922 |  77 |  77 |   0 |  0 |   0 |   0 |      --      | 1.603571e+01 |    Inf | unknown
r 0.1s|     1 |     0 |  1907 |     - |simplero|   0 | 928 |  77 |  77 |   0 |  0 |   0 |   0 |      --      | 1.602740e+01 |    Inf | unknown
r 0.1s|     1 |     0 |  1910 |     - |simplero|   0 | 928 |  77 |  77 |   0 |  0 |   0 |   0 |      --      | 1.600000e+01 |    Inf | unknown
  0.1s|     1 |     0 |  1925 |     - |  4630k |   0 | 936 |  77 |  77 |   0 |  0 |   0 |   0 | 1.600000e+01 | 1.600000e+01 |   0.00%| unknown
  0.1s|     1 |     0 |  1925 |     - |  4630k |   0 | 936 |  77 |  77 |   0 |  0 |   0 |   0 | 1.600000e+01 | 1.600000e+01 |   0.00%| unknown

SCIP Status        : problem is solved [optimal solution found]
Solving Time (sec) : 0.11
Solving Nodes      : 1
Primal Bound       : +1.60000000000000e+01 (51 solutions)
Dual Bound         : +1.60000000000000e+01
Gap                : 0.00 %

written transformed problem to file <results_rootrelaxation/bin012_080_012.srr.lp>
written transformed problem to file <results_rootrelaxation/bin012_080_012.srr.cip>

written solution information to file <results_rootrelaxation/bin012_080_012.srr.sol>



